(set-info :source |printed by MathSAT|)
(declare-fun |!{$(in_main#0)<k>}| () Int)
(declare-fun |!{$(in_main#0)<k>}.next| () Int)
(declare-fun |!{$(in_main#0)<k#1>}| () Int)
(declare-fun |!{$(in_main#0)<k#1>}.next| () Int)
(declare-fun |!{$(in_main#0)<k#2>}| () Int)
(declare-fun |!{$(in_main#0)<k#2>}.next| () Int)
(declare-fun |!{$(in_main#0)<l>}| () Int)
(declare-fun |!{$(in_main#0)<l>}.next| () Int)
(declare-fun |!{%memaddr}| () Int)
(declare-fun |!{%memaddr}.next| () Int)
(declare-fun |!{%mem.0}| () (Array Int Int))
(declare-fun |!{%mem.0}.next| () (Array Int Int))
(declare-fun |!{$(in_main#0)<N>}| () Int)
(declare-fun |!{$(in_main#0)<N>}.next| () Int)
(declare-fun |!{$(in_main#0)<&array>}| () Int)
(declare-fun |!{$(in_main#0)<&array>}.next| () Int)
(declare-fun |!{$(in_main#0)<$(in___VERIFIER_nondet_int#1)<h#<__VERIFIER_nondet_int.return>>>}| () Int)
(declare-fun |!{$(in_main#0)<$(in___VERIFIER_nondet_int#3)<h#<__VERIFIER_nondet_int.return>>>}| () Int)
(declare-fun |!{$(in_main#0)<$(in_array_insert_first#5)<tmp>>}| () Int)
(declare-fun |!{$(in_main#0)<$(in_array_insert_first#5)<$(in_array_insert_first#0)<tmp>>>}| () Int)
(declare-fun !pc () Int)
(declare-fun !pc.next () Int)
(declare-fun |%{$(in_main#0)<k#1>}#1| () Int)
(declare-fun |%{$(in_main#0)<k#2>}#1| () Int)
(declare-fun |%{$(in_main#0)<l>}#1| () Int)
(declare-fun |%{$(in_main#0)<$(in_array_insert_first#5)<$(in_array_insert_first#0)<tmp>>>}#3| () Int)
(declare-fun |%{%mem.0}#5| () (Array Int Int))
(declare-fun |%{$(in_main#0)<$(in_array_insert_first#5)<tmp>>}#3| () Int)
(define-fun .def_53 () Int (! !pc :next !pc.next))
(define-fun .def_56 () Bool (! (= .def_53 2) :init true))
(define-fun .def_372 () Bool (= .def_53 49))
(define-fun .def_341 () Bool (= !pc.next 69))
(define-fun .def_375 () Bool (and .def_341 .def_372))
(define-fun .def_363 () Bool (= |!{$(in_main#0)<k#1>}.next| 1))
(define-fun .def_8 () Int (! |!{$(in_main#0)<k>}| :next |!{$(in_main#0)<k>}.next|))
(define-fun .def_101 () Bool (= .def_8 |!{$(in_main#0)<k>}.next|))
(define-fun .def_364 () Bool (and .def_101 .def_363))
(define-fun .def_12 () Int (! |!{$(in_main#0)<k#2>}| :next |!{$(in_main#0)<k#2>}.next|))
(define-fun .def_104 () Bool (= .def_12 |!{$(in_main#0)<k#2>}.next|))
(define-fun .def_365 () Bool (and .def_104 .def_364))
(define-fun .def_14 () Int (! |!{$(in_main#0)<l>}| :next |!{$(in_main#0)<l>}.next|))
(define-fun .def_121 () Bool (= .def_14 |!{$(in_main#0)<l>}.next|))
(define-fun .def_366 () Bool (and .def_121 .def_365))
(define-fun .def_16 () Int (! |!{%memaddr}| :next |!{%memaddr}.next|))
(define-fun .def_110 () Bool (= .def_16 |!{%memaddr}.next|))
(define-fun .def_367 () Bool (and .def_110 .def_366))
(define-fun .def_18 () (Array Int Int) (! |!{%mem.0}| :next |!{%mem.0}.next|))
(define-fun .def_83 () Bool (= .def_18 |!{%mem.0}.next|))
(define-fun .def_368 () Bool (and .def_83 .def_367))
(define-fun .def_20 () Int (! |!{$(in_main#0)<N>}| :next |!{$(in_main#0)<N>}.next|))
(define-fun .def_113 () Bool (= .def_20 |!{$(in_main#0)<N>}.next|))
(define-fun .def_369 () Bool (and .def_113 .def_368))
(define-fun .def_22 () Int (! |!{$(in_main#0)<&array>}| :next |!{$(in_main#0)<&array>}.next|))
(define-fun .def_115 () Bool (= .def_22 |!{$(in_main#0)<&array>}.next|))
(define-fun .def_370 () Bool (and .def_115 .def_369))
(define-fun .def_346 () Bool (<= .def_20 .def_8))
(define-fun .def_371 () Bool (and .def_346 .def_370))
(define-fun .def_376 () Bool (and .def_371 .def_375))
(define-fun .def_91 () Bool (= !pc.next 49))
(define-fun .def_373 () Bool (and .def_91 .def_372))
(define-fun .def_348 () Int (+ .def_8 .def_22))
(define-fun .def_349 () (Array Int Int) (store .def_18 .def_348 |!{$(in_main#0)<$(in___VERIFIER_nondet_int#3)<h#<__VERIFIER_nondet_int.return>>>}|))
(define-fun .def_358 () Bool (= |!{%mem.0}.next| .def_349))
(define-fun .def_351 () Int (* (- 1) |!{$(in_main#0)<k>}.next|))
(define-fun .def_352 () Int (+ .def_8 .def_351))
(define-fun .def_353 () Bool (= .def_352 (- 1)))
(define-fun .def_10 () Int (! |!{$(in_main#0)<k#1>}| :next |!{$(in_main#0)<k#1>}.next|))
(define-fun .def_102 () Bool (= .def_10 |!{$(in_main#0)<k#1>}.next|))
(define-fun .def_354 () Bool (and .def_102 .def_353))
(define-fun .def_355 () Bool (and .def_104 .def_354))
(define-fun .def_356 () Bool (and .def_121 .def_355))
(define-fun .def_357 () Bool (and .def_110 .def_356))
(define-fun .def_359 () Bool (and .def_357 .def_358))
(define-fun .def_360 () Bool (and .def_113 .def_359))
(define-fun .def_361 () Bool (and .def_115 .def_360))
(define-fun .def_347 () Bool (not .def_346))
(define-fun .def_362 () Bool (and .def_347 .def_361))
(define-fun .def_374 () Bool (and .def_362 .def_373))
(define-fun .def_377 () Bool (or .def_374 .def_376))
(define-fun .def_338 () Bool (= .def_53 77))
(define-fun .def_342 () Bool (and .def_338 .def_341))
(define-fun .def_327 () Int (* (- 1) |!{$(in_main#0)<k#1>}.next|))
(define-fun .def_328 () Int (+ .def_10 .def_327))
(define-fun .def_329 () Bool (= .def_328 (- 1)))
(define-fun .def_330 () Bool (and .def_101 .def_329))
(define-fun .def_331 () Bool (and .def_104 .def_330))
(define-fun .def_332 () Bool (and .def_121 .def_331))
(define-fun .def_333 () Bool (and .def_110 .def_332))
(define-fun .def_334 () Bool (and .def_83 .def_333))
(define-fun .def_335 () Bool (and .def_113 .def_334))
(define-fun .def_336 () Bool (and .def_115 .def_335))
(define-fun .def_138 () Bool (<= .def_20 .def_14))
(define-fun .def_337 () Bool (and .def_138 .def_336))
(define-fun .def_343 () Bool (and .def_337 .def_342))
(define-fun .def_311 () Bool (= !pc.next 77))
(define-fun .def_339 () Bool (and .def_311 .def_338))
(define-fun .def_142 () Int (+ .def_14 .def_22))
(define-fun .def_143 () Int (select .def_18 .def_142))
(define-fun .def_318 () Int (+ .def_10 .def_22))
(define-fun .def_319 () Int (select .def_18 .def_318))
(define-fun .def_320 () Bool (<= .def_319 .def_143))
(define-fun .def_321 () Int (ite .def_320 1 0))
(define-fun .def_322 () Bool (= .def_321 0))
(define-fun .def_323 () Bool (not .def_322))
(define-fun .def_106 () Int (* (- 1) |!{$(in_main#0)<l>}.next|))
(define-fun .def_160 () Int (+ .def_14 .def_106))
(define-fun .def_161 () Bool (= .def_160 (- 1)))
(define-fun .def_103 () Bool (and .def_101 .def_102))
(define-fun .def_105 () Bool (and .def_103 .def_104))
(define-fun .def_162 () Bool (and .def_105 .def_161))
(define-fun .def_163 () Bool (and .def_110 .def_162))
(define-fun .def_164 () Bool (and .def_83 .def_163))
(define-fun .def_165 () Bool (and .def_113 .def_164))
(define-fun .def_166 () Bool (and .def_115 .def_165))
(define-fun .def_325 () Bool (and .def_166 .def_323))
(define-fun .def_139 () Bool (not .def_138))
(define-fun .def_326 () Bool (and .def_139 .def_325))
(define-fun .def_340 () Bool (and .def_326 .def_339))
(define-fun .def_344 () Bool (or .def_340 .def_343))
(define-fun .def_309 () Bool (= .def_53 69))
(define-fun .def_187 () Bool (= !pc.next 168))
(define-fun .def_314 () Bool (and .def_187 .def_309))
(define-fun .def_210 () Int (+ .def_22 2))
(define-fun .def_287 () Int (select .def_18 .def_210))
(define-fun .def_200 () Int (select .def_18 .def_22))
(define-fun .def_292 () Bool (<= .def_200 .def_287))
(define-fun .def_227 () Bool (= |!{$(in_main#0)<$(in_array_insert_first#5)<$(in_array_insert_first#0)<tmp>>>}| |%{$(in_main#0)<$(in_array_insert_first#5)<$(in_array_insert_first#0)<tmp>>>}#3|))
(define-fun .def_296 () Bool (and .def_227 .def_292))
(define-fun .def_201 () Int (+ .def_22 1))
(define-fun .def_202 () Int (select .def_18 .def_201))
(define-fun .def_205 () (Array Int Int) (store .def_18 .def_22 .def_202))
(define-fun .def_206 () (Array Int Int) (store .def_205 .def_201 .def_200))
(define-fun .def_233 () Bool (= .def_206 |%{%mem.0}#5|))
(define-fun .def_297 () Bool (and .def_233 .def_296))
(define-fun .def_293 () Bool (not .def_292))
(define-fun .def_291 () Bool (= .def_200 |%{$(in_main#0)<$(in_array_insert_first#5)<$(in_array_insert_first#0)<tmp>>>}#3|))
(define-fun .def_294 () Bool (and .def_291 .def_293))
(define-fun .def_288 () (Array Int Int) (store .def_205 .def_201 .def_287))
(define-fun .def_289 () (Array Int Int) (store .def_288 .def_210 .def_200))
(define-fun .def_290 () Bool (= |%{%mem.0}#5| .def_289))
(define-fun .def_295 () Bool (and .def_290 .def_294))
(define-fun .def_298 () Bool (or .def_295 .def_297))
(define-fun .def_207 () Bool (<= .def_20 2))
(define-fun .def_208 () Bool (not .def_207))
(define-fun .def_299 () Bool (and .def_208 .def_298))
(define-fun .def_245 () Bool (and .def_207 .def_227))
(define-fun .def_246 () Bool (and .def_233 .def_245))
(define-fun .def_300 () Bool (or .def_246 .def_299))
(define-fun .def_203 () Bool (<= .def_200 .def_202))
(define-fun .def_204 () Bool (not .def_203))
(define-fun .def_301 () Bool (and .def_204 .def_300))
(define-fun .def_256 () Bool (= .def_200 |%{$(in_main#0)<$(in_array_insert_first#5)<tmp>>}#3|))
(define-fun .def_302 () Bool (and .def_256 .def_301))
(define-fun .def_259 () Bool (= .def_18 |%{%mem.0}#5|))
(define-fun .def_255 () Bool (= |!{$(in_main#0)<$(in_array_insert_first#5)<tmp>>}| |%{$(in_main#0)<$(in_array_insert_first#5)<tmp>>}#3|))
(define-fun .def_257 () Bool (and .def_203 .def_255))
(define-fun .def_260 () Bool (and .def_257 .def_259))
(define-fun .def_303 () Bool (or .def_260 .def_302))
(define-fun .def_198 () Bool (<= .def_20 1))
(define-fun .def_199 () Bool (not .def_198))
(define-fun .def_304 () Bool (and .def_199 .def_303))
(define-fun .def_265 () Bool (and .def_198 .def_255))
(define-fun .def_266 () Bool (and .def_259 .def_265))
(define-fun .def_305 () Bool (or .def_266 .def_304))
(define-fun .def_281 () Bool (= |!{%mem.0}.next| |%{%mem.0}#5|))
(define-fun .def_277 () Bool (= |!{$(in_main#0)<k#2>}.next| 0))
(define-fun .def_278 () Bool (and .def_103 .def_277))
(define-fun .def_279 () Bool (and .def_121 .def_278))
(define-fun .def_280 () Bool (and .def_110 .def_279))
(define-fun .def_282 () Bool (and .def_280 .def_281))
(define-fun .def_283 () Bool (and .def_113 .def_282))
(define-fun .def_284 () Bool (and .def_115 .def_283))
(define-fun .def_306 () Bool (and .def_284 .def_305))
(define-fun .def_96 () Int (* (- 1) .def_20))
(define-fun .def_194 () Int (+ .def_10 .def_96))
(define-fun .def_195 () Bool (<= (- 1) .def_194))
(define-fun .def_307 () Bool (and .def_195 .def_306))
(define-fun .def_315 () Bool (and .def_307 .def_314))
(define-fun .def_312 () Bool (and .def_309 .def_311))
(define-fun .def_269 () Int (+ .def_10 .def_106))
(define-fun .def_270 () Bool (= .def_269 (- 1)))
(define-fun .def_271 () Bool (and .def_105 .def_270))
(define-fun .def_272 () Bool (and .def_110 .def_271))
(define-fun .def_273 () Bool (and .def_83 .def_272))
(define-fun .def_274 () Bool (and .def_113 .def_273))
(define-fun .def_275 () Bool (and .def_115 .def_274))
(define-fun .def_196 () Bool (not .def_195))
(define-fun .def_276 () Bool (and .def_196 .def_275))
(define-fun .def_313 () Bool (and .def_276 .def_312))
(define-fun .def_316 () Bool (or .def_313 .def_315))
(define-fun .def_179 () Bool (= .def_53 176))
(define-fun .def_188 () Bool (and .def_179 .def_187))
(define-fun .def_169 () Int (* (- 1) |!{$(in_main#0)<k#2>}.next|))
(define-fun .def_170 () Int (+ .def_12 .def_169))
(define-fun .def_171 () Bool (= .def_170 (- 1)))
(define-fun .def_172 () Bool (and .def_103 .def_171))
(define-fun .def_173 () Bool (and .def_121 .def_172))
(define-fun .def_174 () Bool (and .def_110 .def_173))
(define-fun .def_175 () Bool (and .def_83 .def_174))
(define-fun .def_176 () Bool (and .def_113 .def_175))
(define-fun .def_177 () Bool (and .def_115 .def_176))
(define-fun .def_178 () Bool (and .def_138 .def_177))
(define-fun .def_189 () Bool (and .def_178 .def_188))
(define-fun .def_130 () Bool (= !pc.next 176))
(define-fun .def_184 () Bool (and .def_130 .def_179))
(define-fun .def_140 () Int (+ .def_12 .def_22))
(define-fun .def_141 () Int (select .def_18 .def_140))
(define-fun .def_144 () Bool (<= .def_141 .def_143))
(define-fun .def_145 () Int (ite .def_144 1 0))
(define-fun .def_146 () Bool (= .def_145 0))
(define-fun .def_147 () Bool (not .def_146))
(define-fun .def_167 () Bool (and .def_147 .def_166))
(define-fun .def_168 () Bool (and .def_139 .def_167))
(define-fun .def_185 () Bool (and .def_168 .def_184))
(define-fun .def_181 () Bool (= !pc.next 196))
(define-fun .def_182 () Bool (and .def_179 .def_181))
(define-fun .def_151 () Bool (and .def_101 .def_146))
(define-fun .def_152 () Bool (and .def_102 .def_151))
(define-fun .def_153 () Bool (and .def_104 .def_152))
(define-fun .def_154 () Bool (and .def_121 .def_153))
(define-fun .def_155 () Bool (and .def_110 .def_154))
(define-fun .def_156 () Bool (and .def_83 .def_155))
(define-fun .def_157 () Bool (and .def_113 .def_156))
(define-fun .def_158 () Bool (and .def_115 .def_157))
(define-fun .def_159 () Bool (and .def_139 .def_158))
(define-fun .def_183 () Bool (and .def_159 .def_182))
(define-fun .def_186 () Bool (or .def_183 .def_185))
(define-fun .def_190 () Bool (or .def_186 .def_189))
(define-fun .def_133 () Bool (= !pc.next 0))
(define-fun .def_128 () Bool (= .def_53 168))
(define-fun .def_134 () Bool (and .def_128 .def_133))
(define-fun .def_97 () Int (+ .def_12 .def_96))
(define-fun .def_98 () Bool (<= (- 1) .def_97))
(define-fun .def_118 () Bool (and .def_98 .def_101))
(define-fun .def_119 () Bool (and .def_102 .def_118))
(define-fun .def_120 () Bool (and .def_104 .def_119))
(define-fun .def_122 () Bool (and .def_120 .def_121))
(define-fun .def_123 () Bool (and .def_110 .def_122))
(define-fun .def_124 () Bool (and .def_83 .def_123))
(define-fun .def_125 () Bool (and .def_113 .def_124))
(define-fun .def_126 () Bool (and .def_115 .def_125))
(define-fun .def_135 () Bool (and .def_126 .def_134))
(define-fun .def_131 () Bool (and .def_128 .def_130))
(define-fun .def_107 () Int (+ .def_12 .def_106))
(define-fun .def_108 () Bool (= .def_107 (- 1)))
(define-fun .def_109 () Bool (and .def_105 .def_108))
(define-fun .def_111 () Bool (and .def_109 .def_110))
(define-fun .def_112 () Bool (and .def_83 .def_111))
(define-fun .def_114 () Bool (and .def_112 .def_113))
(define-fun .def_116 () Bool (and .def_114 .def_115))
(define-fun .def_99 () Bool (not .def_98))
(define-fun .def_117 () Bool (and .def_99 .def_116))
(define-fun .def_132 () Bool (and .def_117 .def_131))
(define-fun .def_136 () Bool (or .def_132 .def_135))
(define-fun .def_92 () Bool (and .def_56 .def_91))
(define-fun .def_87 () Bool (= |!{$(in_main#0)<&array>}.next| 1))
(define-fun .def_85 () Bool (= |!{$(in_main#0)<N>}.next| |!{$(in_main#0)<$(in___VERIFIER_nondet_int#1)<h#<__VERIFIER_nondet_int.return>>>}|))
(define-fun .def_81 () Bool (= |!{%memaddr}.next| 2))
(define-fun .def_79 () Bool (= |!{$(in_main#0)<l>}.next| |%{$(in_main#0)<l>}#1|))
(define-fun .def_77 () Bool (= |!{$(in_main#0)<k#2>}.next| |%{$(in_main#0)<k#2>}#1|))
(define-fun .def_75 () Bool (= |!{$(in_main#0)<k#1>}.next| |%{$(in_main#0)<k#1>}#1|))
(define-fun .def_74 () Bool (= |!{$(in_main#0)<k>}.next| 0))
(define-fun .def_76 () Bool (and .def_74 .def_75))
(define-fun .def_78 () Bool (and .def_76 .def_77))
(define-fun .def_80 () Bool (and .def_78 .def_79))
(define-fun .def_82 () Bool (and .def_80 .def_81))
(define-fun .def_84 () Bool (and .def_82 .def_83))
(define-fun .def_86 () Bool (and .def_84 .def_85))
(define-fun .def_88 () Bool (and .def_86 .def_87))
(define-fun .def_69 () Bool (<= |!{$(in_main#0)<$(in___VERIFIER_nondet_int#1)<h#<__VERIFIER_nondet_int.return>>>}| 0))
(define-fun .def_70 () Bool (not .def_69))
(define-fun .def_71 () Int (ite .def_70 1 0))
(define-fun .def_72 () Bool (= .def_71 0))
(define-fun .def_73 () Bool (not .def_72))
(define-fun .def_89 () Bool (and .def_73 .def_88))
(define-fun .def_93 () Bool (and .def_89 .def_92))
(define-fun .def_137 () Bool (or .def_93 .def_136))
(define-fun .def_191 () Bool (or .def_137 .def_190))
(define-fun .def_317 () Bool (or .def_191 .def_316))
(define-fun .def_345 () Bool (or .def_317 .def_344))
(define-fun .def_378 () Bool (! (or .def_345 .def_377) :trans true))
(define-fun .def_192 () Bool (= .def_53 196))
(define-fun .def_379 () Bool (! (not .def_192) :invar-property 0 :invar-property-name ||))
(assert true)
